Traveling Salesman Problem/TSP_generados/Aleatorio1620395205_17.tsp
NAME: Aleatorio1620395205_17.tsp
COMMENT: Randomly generated scenario
TYPE: TSP
DIMENSION: 17
EDGE_WEIGHT_TYPE: ATT
NODE_COORD_SECTION
1 6.44 16.36
2 40.39 17.79
3 21.85 48.23
4 40.14 26.28
5 42.02 42.83
6 49.37 34.53
7 34.8 19.47
8 32.57 25.64
9 38.42 19.46
10 11.0 17.06
11 23.3 3.87
12 18.16 16.29
13 4.36 42.65
14 3.15 3.65
15 40.84 44.02
16 18.32 43.25
17 16.56 1.42
