Traveling Salesman Problem/TSP_generados/Aleatorio1620395205_17.opt.tour
NAME: Aleatorio1620395205_17.opt.tour
COMMENT: Optimal solution for Aleatorio1620395205_17 (181.4917433235578)
TYPE: TOUR
DIMENSION: 17
TOUR_SECTION
1 14 17 11 12 8 7 9 2 4 6 5 15 3 16 13 10
-1
EOF
